400 760
1 2 2
1 21 5
2 3 5
2 22 5
3 4 5
3 23 2
4 5 1
4 24 5
5 6 3
5 25 1
6 7 5
6 26 1
7 8 2
7 27 3
8 9 5
8 28 4
9 10 5
9 29 5
10 11 3
10 30 4
11 12 5
11 31 2
12 13 3
12 32 2
13 14 4
13 33 4
14 15 2
14 34 4
15 16 2
15 35 1
16 17 3
16 36 5
17 18 2
17 37 5
18 19 3
18 38 2
19 20 4
19 39 2
20 40 5
21 22 2
21 41 4
22 23 4
22 42 1
23 24 4
23 43 4
24 25 5
24 44 5
25 26 1
25 45 1
26 27 3
26 46 1
27 28 1
27 47 4
28 29 4
28 48 3
29 30 2
29 49 5
30 31 2
30 50 5
31 32 1
31 51 5
32 33 1
32 52 5
33 34 3
33 53 2
34 35 2
34 54 1
35 36 1
35 55 1
36 37 3
36 56 2
37 38 5
37 57 3
38 39 1
38 58 2
39 40 4
39 59 2
40 60 4
41 42 5
41 61 3
42 43 3
42 62 4
43 44 3
43 63 1
44 45 2
44 64 5
45 46 5
45 65 4
46 47 3
46 66 1
47 48 1
47 67 1
48 49 4
48 68 4
49 50 4
49 69 5
50 51 4
50 70 4
51 52 4
51 71 2
52 53 4
52 72 3
53 54 1
53 73 4
54 55 2
54 74 2
55 56 5
55 75 5
56 57 5
56 76 4
57 58 5
57 77 2
58 59 3
58 78 5
59 60 2
59 79 5
60 80 5
61 62 1
61 81 5
62 63 1
62 82 3
63 64 3
63 83 1
64 65 4
64 84 1
65 66 5
65 85 3
66 67 2
66 86 3
67 68 4
67 87 2
68 69 1
68 88 5
69 70 5
69 89 3
70 71 5
70 90 1
71 72 2
71 91 1
72 73 4
72 92 2
73 74 4
73 93 5
74 75 3
74 94 3
75 76 1
75 95 3
76 77 1
76 96 4
77 78 1
77 97 2
78 79 3
78 98 2
79 80 1
79 99 4
80 100 5
81 82 4
81 101 2
82 83 4
82 102 5
83 84 5
83 103 5
84 85 1
84 104 2
85 86 1
85 105 1
86 87 1
86 106 2
87 88 2
87 107 1
88 89 4
88 108 1
89 90 2
89 109 3
90 91 4
90 110 2
91 92 1
91 111 4
92 93 4
92 112 1
93 94 1
93 113 1
94 95 2
94 114 2
95 96 3
95 115 4
96 97 2
96 116 3
97 98 2
97 117 5
98 99 5
98 118 4
99 100 5
99 119 4
100 120 5
101 102 4
101 121 3
102 103 5
102 122 3
103 104 3
103 123 3
104 105 3
104 124 2
105 106 3
105 125 1
106 107 3
106 126 2
107 108 5
107 127 1
108 109 5
108 128 5
109 110 5
109 129 1
110 111 5
110 130 2
111 112 1
111 131 1
112 113 5
112 132 2
113 114 3
113 133 1
114 115 1
114 134 3
115 116 4
115 135 5
116 117 2
116 136 3
117 118 4
117 137 4
118 119 4
118 138 5
119 120 4
119 139 1
120 140 1
121 122 3
121 141 1
122 123 4
122 142 2
123 124 5
123 143 2
124 125 1
124 144 5
125 126 2
125 145 2
126 127 3
126 146 3
127 128 1
127 147 3
128 129 2
128 148 2
129 130 3
129 149 3
130 131 4
130 150 1
131 132 3
131 151 3
132 133 3
132 152 1
133 134 4
133 153 4
134 135 4
134 154 3
135 136 4
135 155 5
136 137 3
136 156 5
137 138 4
137 157 4
138 139 3
138 158 4
139 140 5
139 159 4
140 160 4
141 142 2
141 161 3
142 143 1
142 162 1
143 144 3
143 163 3
144 145 5
144 164 4
145 146 5
145 165 4
146 147 2
146 166 4
147 148 3
147 167 4
148 149 3
148 168 4
149 150 3
149 169 4
150 151 2
150 170 3
151 152 1
151 171 1
152 153 5
152 172 4
153 154 4
153 173 1
154 155 5
154 174 4
155 156 3
155 175 1
156 157 4
156 176 1
157 158 5
157 177 2
158 159 1
158 178 2
159 160 5
159 179 1
160 180 5
161 162 1
161 181 5
162 163 1
162 182 3
163 164 5
163 183 4
164 165 1
164 184 4
165 166 3
165 185 2
166 167 2
166 186 4
167 168 1
167 187 4
168 169 2
168 188 3
169 170 4
169 189 1
170 171 3
170 190 2
171 172 3
171 191 5
172 173 4
172 192 3
173 174 4
173 193 3
174 175 2
174 194 4
175 176 4
175 195 4
176 177 2
176 196 5
177 178 4
177 197 4
178 179 2
178 198 5
179 180 5
179 199 2
180 200 5
181 182 3
181 201 5
182 183 4
182 202 2
183 184 4
183 203 2
184 185 1
184 204 4
185 186 1
185 205 3
186 187 1
186 206 4
187 188 4
187 207 5
188 189 2
188 208 5
189 190 2
189 209 4
190 191 4
190 210 3
191 192 2
191 211 3
192 193 1
192 212 2
193 194 3
193 213 2
194 195 1
194 214 3
195 196 2
195 215 5
196 197 4
196 216 3
197 198 2
197 217 5
198 199 4
198 218 2
199 200 1
199 219 1
200 220 1
201 202 4
201 221 2
202 203 2
202 222 1
203 204 4
203 223 3
204 205 5
204 224 3
205 206 3
205 225 2
206 207 1
206 226 5
207 208 3
207 227 5
208 209 4
208 228 1
209 210 4
209 229 5
210 211 4
210 230 3
211 212 5
211 231 5
212 213 3
212 232 4
213 214 5
213 233 3
214 215 2
214 234 3
215 216 1
215 235 2
216 217 5
216 236 2
217 218 4
217 237 2
218 219 3
218 238 2
219 220 5
219 239 3
220 240 1
221 222 1
221 241 1
222 223 5
222 242 1
223 224 3
223 243 4
224 225 1
224 244 4
225 226 5
225 245 4
226 227 5
226 246 4
227 228 4
227 247 2
228 229 5
228 248 1
229 230 3
229 249 5
230 231 2
230 250 2
231 232 5
231 251 2
232 233 1
232 252 2
233 234 1
233 253 3
234 235 3
234 254 3
235 236 2
235 255 5
236 237 4
236 256 1
237 238 3
237 257 1
238 239 2
238 258 3
239 240 5
239 259 2
240 260 2
241 242 4
241 261 5
242 243 4
242 262 2
243 244 1
243 263 2
244 245 1
244 264 5
245 246 4
245 265 4
246 247 2
246 266 4
247 248 3
247 267 3
248 249 3
248 268 4
249 250 4
249 269 1
250 251 2
250 270 5
251 252 1
251 271 5
252 253 3
252 272 5
253 254 2
253 273 1
254 255 5
254 274 5
255 256 4
255 275 1
256 257 2
256 276 5
257 258 5
257 277 3
258 259 1
258 278 3
259 260 2
259 279 2
260 280 4
261 262 2
261 281 3
262 263 4
262 282 5
263 264 4
263 283 2
264 265 3
264 284 2
265 266 1
265 285 2
266 267 3
266 286 5
267 268 1
267 287 3
268 269 5
268 288 3
269 270 1
269 289 3
270 271 3
270 290 2
271 272 4
271 291 5
272 273 5
272 292 2
273 274 2
273 293 2
274 275 4
274 294 3
275 276 2
275 295 2
276 277 3
276 296 2
277 278 2
277 297 5
278 279 4
278 298 1
279 280 5
279 299 4
280 300 5
281 282 3
281 301 1
282 283 5
282 302 2
283 284 4
283 303 5
284 285 3
284 304 1
285 286 2
285 305 5
286 287 1
286 306 4
287 288 4
287 307 2
288 289 4
288 308 5
289 290 1
289 309 1
290 291 5
290 310 3
291 292 2
291 311 1
292 293 4
292 312 3
293 294 5
293 313 2
294 295 1
294 314 3
295 296 5
295 315 2
296 297 2
296 316 5
297 298 4
297 317 5
298 299 1
298 318 1
299 300 5
299 319 5
300 320 3
301 302 1
301 321 2
302 303 2
302 322 4
303 304 4
303 323 5
304 305 3
304 324 5
305 306 2
305 325 2
306 307 4
306 326 4
307 308 5
307 327 2
308 309 5
308 328 5
309 310 5
309 329 2
310 311 2
310 330 5
311 312 1
311 331 5
312 313 5
312 332 1
313 314 5
313 333 1
314 315 4
314 334 4
315 316 2
315 335 2
316 317 1
316 336 4
317 318 3
317 337 1
318 319 2
318 338 5
319 320 5
319 339 4
320 340 5
321 322 2
321 341 4
322 323 3
322 342 2
323 324 4
323 343 1
324 325 3
324 344 2
325 326 2
325 345 4
326 327 3
326 346 5
327 328 5
327 347 3
328 329 3
328 348 1
329 330 1
329 349 2
330 331 4
330 350 3
331 332 2
331 351 1
332 333 4
332 352 3
333 334 2
333 353 2
334 335 1
334 354 3
335 336 4
335 355 4
336 337 1
336 356 5
337 338 5
337 357 1
338 339 3
338 358 2
339 340 1
339 359 5
340 360 3
341 342 5
341 361 5
342 343 3
342 362 1
343 344 5
343 363 4
344 345 1
344 364 1
345 346 2
345 365 3
346 347 1
346 366 1
347 348 4
347 367 1
348 349 5
348 368 4
349 350 2
349 369 2
350 351 2
350 370 5
351 352 1
351 371 1
352 353 4
352 372 5
353 354 4
353 373 1
354 355 4
354 374 3
355 356 2
355 375 3
356 357 3
356 376 2
357 358 3
357 377 4
358 359 1
358 378 5
359 360 5
359 379 3
360 380 3
361 362 1
361 381 2
362 363 1
362 382 2
363 364 4
363 383 5
364 365 5
364 384 2
365 366 4
365 385 5
366 367 4
366 386 5
367 368 2
367 387 5
368 369 1
368 388 5
369 370 5
369 389 5
370 371 1
370 390 3
371 372 5
371 391 4
372 373 2
372 392 4
373 374 5
373 393 2
374 375 1
374 394 5
375 376 4
375 395 1
376 377 3
376 396 5
377 378 1
377 397 2
378 379 2
378 398 1
379 380 5
379 399 2
380 400 3
381 382 5
382 383 3
383 384 5
384 385 2
385 386 3
386 387 4
387 388 2
388 389 3
389 390 5
390 391 1
391 392 3
392 393 5
393 394 5
394 395 5
395 396 2
396 397 2
397 398 2
398 399 2
399 400 3
